(set-logic HORN)
(set-info :source |
    Benchmark: C_VC
    Output by Princess (http://www.philipp.ruemmer.org/princess.shtml)
|)
(set-info :status sat)
;===============================================================================
; Encoding of Heap sorts and operations
;-------------------------------------------------------------------------------
(define-sort Addr() Int)
(declare-datatypes ((AddrRange 0))
                   (((AddrRange (AddrRangeStart Addr) (AddrRangeSize Int)))))

(declare-datatypes ((HeapObject 0))
                   (((O_Int (getInt Int)) (O_UInt (getUInt Int)) (O_Addr (getAddr Addr)) (defObj))))
(declare-datatypes ((BatchAllocResHeap 0) (AllocResHeap 0) (Heap 0))
                   (((BatchAllocResHeap   (newBatchHeap Heap) (newAddrRange AddrRange)))
                   ((AllocResHeap   (newHeap Heap) (newAddr Addr)))
                    ((HeapCtor (HeapSize Int)
                               (HeapContents (Array Addr HeapObject))))))
(define-fun nullAddr  () Addr 0)
(define-fun validHeap     ((h Heap) (p Addr)) Bool
  (and (>= (HeapSize h) p) (> p 0)))
(define-fun emptyHeap () Heap (
  HeapCtor 0 (( as const (Array Addr HeapObject)) defObj)))
(define-fun readHeap ((h Heap) (p Addr)) HeapObject
  (ite (validHeap h p)
       (select (HeapContents h) p)
       defObj))
(define-fun writeHeap ((h Heap) (p Addr) (o HeapObject)) Heap
  (ite (validHeap h p)
       (HeapCtor (HeapSize h) (store (HeapContents h) p o))
       h))
(define-fun allocHeap   ((h Heap) (o HeapObject)) AllocResHeap
  (AllocResHeap (HeapCtor (+ 1 (HeapSize h))
                    (store (HeapContents h) (+ 1 (HeapSize h)) o))
          (+ 1 (HeapSize h))))
(define-fun Heap-eq     ((h1 Heap) (h2 Heap)) Bool
  (forall ((p Addr))
          (and (= (validHeap h1 p) (validHeap h2 p))
               (= (readHeap h1 p) (readHeap h2 p)))))
(define-fun nthAddrRange((ar AddrRange) (n Int)) Addr
  (ite (and (>= n 0) (< n (AddrRangeSize ar)))
       (+ (AddrRangeStart ar) n)
       nullAddr))
(define-fun withinHeap ((ar AddrRange ) (p Addr)) Bool
  (and (>= p (AddrRangeStart ar)) (< p (+ (AddrRangeStart ar) (AddrRangeSize ar)))))

(declare-fun batchAllocHeap     (Heap Heap HeapObject Int Int) Bool)
(declare-fun batchAllocPostHeap (Heap Heap HeapObject Int) Bool)

(assert (forall ((h1 Heap) (h2 Heap) (o HeapObject) (n1 Int) (n2 Int))
                (=> (and (> n2 0) (batchAllocHeap h1 h2 o n1 n2))
                   (batchAllocHeap h1 (newHeap (allocHeap h2 o)) o n1 (- n2 1)))))
(assert (forall ((h1 Heap) (h2 Heap) (o HeapObject) (n1 Int) (n2 Int))
                (=> (and (<= n2 0) (batchAllocHeap h1 h2 o n1 n2))
                   (batchAllocPostHeap h1 h2 o n1))))

(declare-fun batchWriteHeap     (Heap Heap Addr Addr HeapObject Int Int) Bool)
(declare-fun batchWritePostHeap (Heap Heap Addr HeapObject Int) Bool)

(assert (forall ((h1 Heap) (h2 Heap) (a1 Addr) (a2 Addr) (o HeapObject) (n1 Int) (n2 Int))
                (=> (and (> n2 0) (batchWriteHeap h1 h2 a1 a2 o n1 n2))
                   (batchWriteHeap h1 (writeHeap h2 a2 o) a1 (+ a2 1) o n1 (- n2 1)))))
(assert (forall ((h1 Heap) (h2 Heap) (a1 Addr) (a2 Addr) (o HeapObject) (n1 Int) (n2 Int))
                (=> (and (<= n2 0) (batchWriteHeap h1 h2 a1 a2 o n1 n2))
                   (batchWritePostHeap h1 h2 a1 o n1))))

;===============================================================================
(declare-fun inv_main24 (Heap Int Int Int Int AddrRange Int Int) Bool)
(declare-fun inv_main27 (Heap Int Int Int Int AddrRange Int Int) Bool)
(declare-fun inv_main28 (Heap Int Int Int Int AddrRange Int Int) Bool)
(declare-fun inv_main3 (Heap Int Int Int Int AddrRange) Bool)
(declare-fun inv_main36 (Heap Int Int Int Int AddrRange Int Int) Bool)
(declare-fun inv_main38 (Heap Int Int Int Int AddrRange Int Int) Bool)
(assert (forall ((var0 Int) (var1 AddrRange) (var2 Int) (var3 Int) (var4 Int) (var5 Heap) (var6 Int) (var7 Heap)) (or (not (and (batchAllocPostHeap emptyHeap var5 (O_Int var4) var6) (and (and (and (and (and (= var2 0) (= var3 0)) true) (= var6 1000)) (= var7 emptyHeap)) (= var1 (AddrRange (ite (<= 0 (+ var6 (- 1))) (+ (HeapSize emptyHeap) 1) (HeapSize emptyHeap)) var6))))) (inv_main3 var5 var6 var0 var3 var2 var1))))
(assert (forall ((var0 Int) (var1 AddrRange) (var2 Int) (var3 Int) (var4 Int) (var5 Heap) (var6 Int) (var7 Heap)) (or (not (and (and (and (and (and (= var2 0) (= var3 0)) true) (= var6 1000)) (= var7 emptyHeap)) (= var1 (AddrRange (ite (<= 0 (+ var6 (- 1))) (+ (HeapSize emptyHeap) 1) (HeapSize emptyHeap)) var6)))) (batchAllocHeap emptyHeap emptyHeap (O_Int var4) var6 var6))))
(assert (forall ((var0 Int) (var1 Int) (var2 Int) (var3 AddrRange) (var4 Int) (var5 Int) (var6 Int) (var7 Int) (var8 Heap)) (or (not (and (and (inv_main38 var8 var7 var6 var5 var4 var3 var2 var1) (= var0 (+ var6 1))) (<= 0 (+ (+ (* (- 1) (+ var6 1)) var7) (* (- 1) 1))))) (inv_main36 var8 var7 var0 var5 var4 var3 var2 var1))))
(assert (forall ((var0 Int) (var1 Int) (var2 Int) (var3 Int) (var4 AddrRange) (var5 Int) (var6 Int) (var7 Heap) (var8 Int) (var9 Int) (var10 Int) (var11 Int) (var12 Int) (var13 AddrRange) (var14 Int) (var15 Int) (var16 Int) (var17 Int) (var18 Heap)) (or (not (and (and (and (and (and (and (and (and (and (and (and (and (and (and (and (inv_main27 var18 var17 var16 var15 var14 var13 var12 var11) (= var0 (+ var5 1))) (= var1 0)) (= var8 (getInt (readHeap var18 (nthAddrRange var13 var16))))) (= var2 var11)) (= var3 var12)) (= var4 var13)) (= var5 var14)) (= var6 var15)) (= var9 var16)) (= var10 var17)) (= var7 var18)) (is-O_Int (readHeap var18 (nthAddrRange var13 var16)))) (= var8 0)) (not (<= 0 (+ (+ (* (- 1) (+ var9 1)) var10) (* (- 1) 1))))) (<= 0 (+ var10 (* (- 1) 1))))) (inv_main36 var7 var10 var1 var6 var0 var4 var3 var2))))
(assert (forall ((var0 Int) (var1 Int) (var2 Int) (var3 AddrRange) (var4 Int) (var5 Int) (var6 Heap) (var7 Int) (var8 Int) (var9 Int) (var10 Int) (var11 Int) (var12 AddrRange) (var13 Int) (var14 Int) (var15 Int) (var16 Int) (var17 Heap)) (or (not (and (and (and (and (and (and (and (and (and (and (and (and (and (and (inv_main27 var17 var16 var15 var14 var13 var12 var11 var10) (= var0 0)) (= var7 (getInt (readHeap var17 (nthAddrRange var12 var15))))) (= var1 var10)) (= var2 var11)) (= var3 var12)) (= var4 var13)) (= var5 var14)) (= var8 var15)) (= var9 var16)) (= var6 var17)) (is-O_Int (readHeap var17 (nthAddrRange var12 var15)))) (not (= var7 0))) (not (<= 0 (+ (+ (* (- 1) (+ var8 1)) var9) (* (- 1) 1))))) (<= 0 (+ var9 (* (- 1) 1))))) (inv_main36 var6 var9 var0 var5 var4 var3 var2 var1))))
(assert (forall ((var0 Int) (var1 Int) (var2 Int) (var3 Int) (var4 Int) (var5 Int) (var6 Int) (var7 AddrRange) (var8 AddrRange) (var9 Int) (var10 Int) (var11 Int) (var12 Int) (var13 Int) (var14 Int) (var15 Int) (var16 Heap) (var17 Heap) (var18 Int) (var19 Int) (var20 Int) (var21 AddrRange) (var22 Int) (var23 Int) (var24 Int) (var25 Int) (var26 Heap) (var27 Int) (var28 Int) (var29 Int) (var30 Int) (var31 Int) (var32 Int) (var33 Int) (var34 Int)) (or (not (and (and (and (and (and (and (and (and (and (and (and (and (and (and (and (and (and (and (and (and (and (and (and (and (and (inv_main3 var26 var25 var24 var23 var22 var21) (= var0 0)) (<= 0 var1)) (or (and (and (<= 0 (+ (+ (* (- 1) var1) 6) (* (- 1) 1))) (<= 0 (+ (+ (* (- 1) 1) var1) (* (- 1) 1)))) (= var3 1)) (and (not (and (<= 0 (+ (+ (* (- 1) 1) var1) (* (- 1) 1))) (<= 0 (+ (+ (* (- 1) var1) 6) (* (- 1) 1))))) (= var3 0)))) (= var4 var1)) (= var18 var2)) (= var7 var21)) (= var9 var22)) (= var11 var23)) (= var13 var24)) (= var15 var25)) (= var16 var26)) (not (= var3 0))) (or (and (and (and (and (and (and (and (and (<= 0 (+ (+ (* (- 1) var18) var27) (* (- 1) 1))) (or (not (<= 0 (+ (* (- 1) var29) (* (- 1) 1)))) (<= 0 (+ (* (- 1) var30) (* (- 1) 1))))) (or (not (<= 0 (+ var29 (* (- 1) 1)))) (<= 0 (+ var30 (* (- 1) 1))))) (or (and (<= 0 var28) (<= 0 (+ (+ (* 1 var29) var28) (* (- 1) 1)))) (and (not (<= 0 var28)) (<= 0 (+ (+ (* 1 var29) (* (- 1) var28)) (* (- 1) 1)))))) (or (and (<= 0 var28) (<= 0 (+ (+ (* (- 1) var29) var28) (* (- 1) 1)))) (and (not (<= 0 var28)) (<= 0 (+ (+ (* (- 1) var29) (* (- 1) var28)) (* (- 1) 1)))))) (= var28 var4)) (= var29 (+ var30 (* (* (- 1) var28) var27)))) (= var30 var15)) (= var19 1)) (and (not (or (not (and (and (and (and (and (and (or (not (<= 0 (+ var33 (* (- 1) 1)))) (<= 0 (+ var34 (* (- 1) 1)))) (or (and (<= 0 var32) (<= 0 (+ (+ (* 1 var33) var32) (* (- 1) 1)))) (and (not (<= 0 var32)) (<= 0 (+ (+ (* 1 var33) (* (- 1) var32)) (* (- 1) 1)))))) (or (and (<= 0 var32) (<= 0 (+ (+ (* (- 1) var33) var32) (* (- 1) 1)))) (and (not (<= 0 var32)) (<= 0 (+ (+ (* (- 1) var33) (* (- 1) var32)) (* (- 1) 1)))))) (= var32 var4)) (= var33 (+ var34 (* (* (- 1) var32) var31)))) (= var34 var15)) (or (not (<= 0 (+ (* (- 1) var33) (* (- 1) 1)))) (<= 0 (+ (* (- 1) var34) (* (- 1) 1)))))) (<= 0 (+ (+ (* (- 1) var18) var31) (* (- 1) 1))))) (= var19 0)))) (= var5 var4)) (= var6 var18)) (= var8 var7)) (= var10 var9)) (= var12 var11)) (= var14 var13)) (= var20 var15)) (= var17 var16)) (<= 0 (+ var18 (* (- 1) 1)))) (not (= var19 0))) (not (<= 0 (+ var20 (* (- 1) 1))))) (<= 0 (+ var20 (* (- 1) 1))))) (inv_main36 var17 var20 var0 var12 var10 var8 var6 var5))))
(assert (forall ((var0 Int) (var1 Int) (var2 Int) (var3 AddrRange) (var4 Int) (var5 Int) (var6 Int) (var7 Int) (var8 Heap) (var9 Int) (var10 Int) (var11 Int) (var12 AddrRange) (var13 Int) (var14 Int) (var15 Int) (var16 Int) (var17 Heap)) (or (not (and (and (and (and (and (and (and (and (and (and (and (and (inv_main36 var17 var16 var15 var14 var13 var12 var11 var10) (= var0 (+ var5 1))) (= var9 (getInt (readHeap var17 (nthAddrRange var12 var15))))) (= var1 var10)) (= var2 var11)) (= var3 var12)) (= var4 var13)) (= var5 var14)) (= var6 var15)) (= var7 var16)) (= var8 var17)) (is-O_Int (readHeap var17 (nthAddrRange var12 var15)))) (= var9 0))) (inv_main38 var8 var7 var6 var0 var4 var3 var2 var1))))
(assert (forall ((var0 Int) (var1 Int) (var2 AddrRange) (var3 Int) (var4 Int) (var5 Int) (var6 Int) (var7 Heap) (var8 Int) (var9 Int) (var10 Int) (var11 AddrRange) (var12 Int) (var13 Int) (var14 Int) (var15 Int) (var16 Heap)) (or (not (and (and (and (and (and (and (and (and (and (and (and (inv_main36 var16 var15 var14 var13 var12 var11 var10 var9) (= var8 (getInt (readHeap var16 (nthAddrRange var11 var14))))) (= var0 var9)) (= var1 var10)) (= var2 var11)) (= var3 var12)) (= var4 var13)) (= var5 var14)) (= var6 var15)) (= var7 var16)) (is-O_Int (readHeap var16 (nthAddrRange var11 var14)))) (not (= var8 0)))) (inv_main38 var7 var6 var5 var4 var3 var2 var1 var0))))
(assert (forall ((var0 Int) (var1 Int) (var2 Int) (var3 Int) (var4 AddrRange) (var5 Int) (var6 Int) (var7 Heap) (var8 Int) (var9 Int) (var10 Int) (var11 Int) (var12 Int) (var13 AddrRange) (var14 Int) (var15 Int) (var16 Int) (var17 Int) (var18 Heap)) (or (not (and (and (and (and (and (and (and (and (and (and (and (and (and (and (inv_main27 var18 var17 var16 var15 var14 var13 var12 var11) (= var0 (+ var5 1))) (= var1 (+ var9 1))) (= var8 (getInt (readHeap var18 (nthAddrRange var13 var16))))) (= var2 var11)) (= var3 var12)) (= var4 var13)) (= var5 var14)) (= var6 var15)) (= var9 var16)) (= var10 var17)) (= var7 var18)) (is-O_Int (readHeap var18 (nthAddrRange var13 var16)))) (= var8 0)) (<= 0 (+ (+ (* (- 1) (+ var9 1)) var10) (* (- 1) 1))))) (inv_main24 var7 var10 var1 var6 var0 var4 var3 var2))))
(assert (forall ((var0 Int) (var1 Int) (var2 Int) (var3 AddrRange) (var4 Int) (var5 Int) (var6 Heap) (var7 Int) (var8 Int) (var9 Int) (var10 Int) (var11 Int) (var12 AddrRange) (var13 Int) (var14 Int) (var15 Int) (var16 Int) (var17 Heap)) (or (not (and (and (and (and (and (and (and (and (and (and (and (and (and (inv_main27 var17 var16 var15 var14 var13 var12 var11 var10) (= var0 (+ var8 1))) (= var7 (getInt (readHeap var17 (nthAddrRange var12 var15))))) (= var1 var10)) (= var2 var11)) (= var3 var12)) (= var4 var13)) (= var5 var14)) (= var8 var15)) (= var9 var16)) (= var6 var17)) (is-O_Int (readHeap var17 (nthAddrRange var12 var15)))) (not (= var7 0))) (<= 0 (+ (+ (* (- 1) (+ var8 1)) var9) (* (- 1) 1))))) (inv_main24 var6 var9 var0 var5 var4 var3 var2 var1))))
(assert (forall ((var0 Int) (var1 Int) (var2 Int) (var3 Int) (var4 Int) (var5 Int) (var6 Int) (var7 AddrRange) (var8 AddrRange) (var9 Int) (var10 Int) (var11 Int) (var12 Int) (var13 Int) (var14 Int) (var15 Int) (var16 Heap) (var17 Heap) (var18 Int) (var19 Int) (var20 Int) (var21 AddrRange) (var22 Int) (var23 Int) (var24 Int) (var25 Int) (var26 Heap) (var27 Int) (var28 Int) (var29 Int) (var30 Int) (var31 Int) (var32 Int) (var33 Int) (var34 Int)) (or (not (and (and (and (and (and (and (and (and (and (and (and (and (and (and (and (and (and (and (and (and (and (and (and (and (inv_main3 var26 var25 var24 var23 var22 var21) (= var0 0)) (<= 0 var1)) (or (and (and (<= 0 (+ (+ (* (- 1) var1) 6) (* (- 1) 1))) (<= 0 (+ (+ (* (- 1) 1) var1) (* (- 1) 1)))) (= var3 1)) (and (not (and (<= 0 (+ (+ (* (- 1) 1) var1) (* (- 1) 1))) (<= 0 (+ (+ (* (- 1) var1) 6) (* (- 1) 1))))) (= var3 0)))) (= var4 var1)) (= var18 var2)) (= var7 var21)) (= var9 var22)) (= var11 var23)) (= var13 var24)) (= var15 var25)) (= var16 var26)) (not (= var3 0))) (or (and (and (and (and (and (and (and (and (<= 0 (+ (+ (* (- 1) var18) var27) (* (- 1) 1))) (or (not (<= 0 (+ (* (- 1) var29) (* (- 1) 1)))) (<= 0 (+ (* (- 1) var30) (* (- 1) 1))))) (or (not (<= 0 (+ var29 (* (- 1) 1)))) (<= 0 (+ var30 (* (- 1) 1))))) (or (and (<= 0 var28) (<= 0 (+ (+ (* 1 var29) var28) (* (- 1) 1)))) (and (not (<= 0 var28)) (<= 0 (+ (+ (* 1 var29) (* (- 1) var28)) (* (- 1) 1)))))) (or (and (<= 0 var28) (<= 0 (+ (+ (* (- 1) var29) var28) (* (- 1) 1)))) (and (not (<= 0 var28)) (<= 0 (+ (+ (* (- 1) var29) (* (- 1) var28)) (* (- 1) 1)))))) (= var28 var4)) (= var29 (+ var30 (* (* (- 1) var28) var27)))) (= var30 var15)) (= var19 1)) (and (not (or (not (and (and (and (and (and (and (or (not (<= 0 (+ var33 (* (- 1) 1)))) (<= 0 (+ var34 (* (- 1) 1)))) (or (and (<= 0 var32) (<= 0 (+ (+ (* 1 var33) var32) (* (- 1) 1)))) (and (not (<= 0 var32)) (<= 0 (+ (+ (* 1 var33) (* (- 1) var32)) (* (- 1) 1)))))) (or (and (<= 0 var32) (<= 0 (+ (+ (* (- 1) var33) var32) (* (- 1) 1)))) (and (not (<= 0 var32)) (<= 0 (+ (+ (* (- 1) var33) (* (- 1) var32)) (* (- 1) 1)))))) (= var32 var4)) (= var33 (+ var34 (* (* (- 1) var32) var31)))) (= var34 var15)) (or (not (<= 0 (+ (* (- 1) var33) (* (- 1) 1)))) (<= 0 (+ (* (- 1) var34) (* (- 1) 1)))))) (<= 0 (+ (+ (* (- 1) var18) var31) (* (- 1) 1))))) (= var19 0)))) (= var5 var4)) (= var6 var18)) (= var8 var7)) (= var10 var9)) (= var12 var11)) (= var14 var13)) (= var20 var15)) (= var17 var16)) (<= 0 (+ var18 (* (- 1) 1)))) (not (= var19 0))) (<= 0 (+ var20 (* (- 1) 1))))) (inv_main24 var17 var20 var0 var12 var10 var8 var6 var5))))
(assert (forall ((var0 AddrRange) (var1 Int) (var2 Heap) (var3 Int) (var4 Int) (var5 Int) (var6 Int) (var7 Int) (var8 Int) (var9 Int) (var10 AddrRange) (var11 Int) (var12 Int) (var13 Int) (var14 Int) (var15 Heap) (var16 Int) (var17 Int) (var18 Int) (var19 Int)) (or (not (and (and (and (and (and (and (and (and (and (and (and (and (and (and (and (and (and (and (and (inv_main24 var15 var14 var13 var12 var11 var10 var9 var8) (= var5 var8)) (= var4 var9)) (= var0 var10)) (= var3 var11)) (= var1 var12)) (= var7 var13)) (= var6 var14)) (= var2 (writeHeap var15 (nthAddrRange var10 var13) (O_Int (+ var13 1))))) (is-O_Int (readHeap var15 (nthAddrRange var10 var13)))) (is-O_Int (readHeap var15 (nthAddrRange var10 var13)))) (<= 0 (+ (+ (* (- 1) var3) var4) (* (- 1) 1)))) (<= 0 (+ (+ (* (- 1) var16) var7) (* (- 1) 1)))) (or (not (<= 0 (+ (* (- 1) var18) (* (- 1) 1)))) (<= 0 (+ (* (- 1) var19) (* (- 1) 1))))) (or (not (<= 0 (+ var18 (* (- 1) 1)))) (<= 0 (+ var19 (* (- 1) 1))))) (or (and (<= 0 var17) (<= 0 (+ (+ (* 1 var18) var17) (* (- 1) 1)))) (and (not (<= 0 var17)) (<= 0 (+ (+ (* 1 var18) (* (- 1) var17)) (* (- 1) 1)))))) (or (and (<= 0 var17) (<= 0 (+ (+ (* (- 1) var18) var17) (* (- 1) 1)))) (and (not (<= 0 var17)) (<= 0 (+ (+ (* (- 1) var18) (* (- 1) var17)) (* (- 1) 1)))))) (= var17 var5)) (= var18 (+ var19 (* (* (- 1) var17) var16)))) (= var19 var6))) (inv_main28 var2 var6 var7 var1 var3 var0 var4 var5))))
(assert (forall ((var0 Heap) (var1 Int) (var2 Int) (var3 AddrRange) (var4 Int) (var5 Int) (var6 Int) (var7 Int) (var8 Heap) (var9 Int) (var10 Int)) (or (not (and (and (and (and (and (and (and (and (inv_main28 var8 var7 var6 var5 var4 var3 var2 var1) (= var0 (writeHeap var8 (nthAddrRange var3 var6) (O_Int var9)))) (= var6 (+ (* var10 var1) var9))) (or (not (<= 0 (+ (* (- 1) var9) (* (- 1) 1)))) (<= 0 (+ (* (- 1) var6) (* (- 1) 1))))) (or (not (<= 0 (+ var9 (* (- 1) 1)))) (<= 0 (+ var6 (* (- 1) 1))))) (or (and (<= 0 var1) (<= 0 (+ (+ (* 1 var9) var1) (* (- 1) 1)))) (and (not (<= 0 var1)) (<= 0 (+ (+ (* 1 var9) (* (- 1) var1)) (* (- 1) 1)))))) (or (and (<= 0 var1) (<= 0 (+ (+ (* (- 1) var9) var1) (* (- 1) 1)))) (and (not (<= 0 var1)) (<= 0 (+ (+ (* (- 1) var9) (* (- 1) var1)) (* (- 1) 1)))))) (is-O_Int (readHeap var8 (nthAddrRange var3 var6)))) (is-O_Int (readHeap var8 (nthAddrRange var3 var6))))) (inv_main27 var0 var7 var6 var5 var4 var3 var2 var1))))
(assert (forall ((var0 AddrRange) (var1 Int) (var2 Heap) (var3 Int) (var4 Int) (var5 Int) (var6 Int) (var7 Int) (var8 Int) (var9 Int) (var10 AddrRange) (var11 Int) (var12 Int) (var13 Int) (var14 Int) (var15 Heap) (var16 Int) (var17 Int) (var18 Int) (var19 Int)) (or (not (and (and (and (and (and (and (and (and (and (and (and (inv_main24 var15 var14 var13 var12 var11 var10 var9 var8) (= var5 var8)) (= var4 var9)) (= var0 var10)) (= var3 var11)) (= var1 var12)) (= var7 var13)) (= var6 var14)) (= var2 (writeHeap var15 (nthAddrRange var10 var13) (O_Int (+ var13 1))))) (is-O_Int (readHeap var15 (nthAddrRange var10 var13)))) (is-O_Int (readHeap var15 (nthAddrRange var10 var13)))) (or (not (or (not (and (and (and (and (and (and (or (not (<= 0 (+ var18 (* (- 1) 1)))) (<= 0 (+ var19 (* (- 1) 1)))) (or (and (<= 0 var17) (<= 0 (+ (+ (* 1 var18) var17) (* (- 1) 1)))) (and (not (<= 0 var17)) (<= 0 (+ (+ (* 1 var18) (* (- 1) var17)) (* (- 1) 1)))))) (or (and (<= 0 var17) (<= 0 (+ (+ (* (- 1) var18) var17) (* (- 1) 1)))) (and (not (<= 0 var17)) (<= 0 (+ (+ (* (- 1) var18) (* (- 1) var17)) (* (- 1) 1)))))) (= var17 var5)) (= var18 (+ var19 (* (* (- 1) var17) var16)))) (= var19 var6)) (or (not (<= 0 (+ (* (- 1) var18) (* (- 1) 1)))) (<= 0 (+ (* (- 1) var19) (* (- 1) 1)))))) (<= 0 (+ (+ (* (- 1) var16) var7) (* (- 1) 1))))) (not (<= 0 (+ (+ (* (- 1) var3) var4) (* (- 1) 1))))))) (inv_main27 var2 var6 var7 var1 var3 var0 var4 var5))))
(assert (forall ((var0 Int) (var1 Int) (var2 AddrRange) (var3 Int) (var4 Int) (var5 Int) (var6 Int) (var7 Heap)) (not (and (inv_main24 var7 var6 var5 var4 var3 var2 var1 var0) (not (is-O_Int (readHeap var7 (nthAddrRange var2 var5))))))))
(assert (forall ((var0 Int) (var1 Int) (var2 AddrRange) (var3 Int) (var4 Int) (var5 Int) (var6 Int) (var7 Heap)) (not (and (and (inv_main24 var7 var6 var5 var4 var3 var2 var1 var0) (not (withinHeap var2 (nthAddrRange var2 var5)))) (is-O_Int (readHeap var7 (nthAddrRange var2 var5)))))))
(assert (forall ((var0 Int) (var1 Int) (var2 AddrRange) (var3 Int) (var4 Int) (var5 Int) (var6 Int) (var7 Heap)) (not (and (and (inv_main24 var7 var6 var5 var4 var3 var2 var1 var0) (not (is-O_Int (readHeap var7 (nthAddrRange var2 var5))))) (is-O_Int (readHeap var7 (nthAddrRange var2 var5)))))))
(assert (forall ((var0 Int) (var1 Int) (var2 AddrRange) (var3 Int) (var4 Int) (var5 Int) (var6 Int) (var7 Heap)) (not (and (inv_main28 var7 var6 var5 var4 var3 var2 var1 var0) (not (is-O_Int (readHeap var7 (nthAddrRange var2 var5))))))))
(assert (forall ((var0 Int) (var1 Int) (var2 AddrRange) (var3 Int) (var4 Int) (var5 Int) (var6 Int) (var7 Heap)) (not (and (and (inv_main28 var7 var6 var5 var4 var3 var2 var1 var0) (not (withinHeap var2 (nthAddrRange var2 var5)))) (is-O_Int (readHeap var7 (nthAddrRange var2 var5)))))))
(assert (forall ((var0 Int) (var1 Int) (var2 AddrRange) (var3 Int) (var4 Int) (var5 Int) (var6 Int) (var7 Heap)) (not (and (and (inv_main28 var7 var6 var5 var4 var3 var2 var1 var0) (not (is-O_Int (readHeap var7 (nthAddrRange var2 var5))))) (is-O_Int (readHeap var7 (nthAddrRange var2 var5)))))))
(assert (forall ((var0 Int) (var1 Int) (var2 AddrRange) (var3 Int) (var4 Int) (var5 Int) (var6 Int) (var7 Heap)) (not (and (inv_main27 var7 var6 var5 var4 var3 var2 var1 var0) (not (is-O_Int (readHeap var7 (nthAddrRange var2 var5))))))))
(assert (forall ((var0 Int) (var1 Int) (var2 AddrRange) (var3 Int) (var4 Int) (var5 Int) (var6 Int) (var7 Heap)) (not (and (and (inv_main27 var7 var6 var5 var4 var3 var2 var1 var0) (not (withinHeap var2 (nthAddrRange var2 var5)))) (is-O_Int (readHeap var7 (nthAddrRange var2 var5)))))))
(assert (forall ((var0 Int) (var1 Int) (var2 AddrRange) (var3 Int) (var4 Int) (var5 Int) (var6 Int) (var7 Heap)) (not (and (inv_main36 var7 var6 var5 var4 var3 var2 var1 var0) (not (is-O_Int (readHeap var7 (nthAddrRange var2 var5))))))))
(assert (forall ((var0 Int) (var1 Int) (var2 AddrRange) (var3 Int) (var4 Int) (var5 Int) (var6 Int) (var7 Heap)) (not (and (and (inv_main36 var7 var6 var5 var4 var3 var2 var1 var0) (not (withinHeap var2 (nthAddrRange var2 var5)))) (is-O_Int (readHeap var7 (nthAddrRange var2 var5)))))))
(assert (forall ((var0 Int) (var1 Int) (var2 AddrRange) (var3 Int) (var4 Int) (var5 Int) (var6 Int) (var7 Heap) (var8 Int) (var9 Int) (var10 Int) (var11 Int)) (not (and (inv_main38 var7 var6 var5 var4 var3 var2 var1 var0) (not (or (not (and (and (and (and (and (and (or (not (<= 0 (+ var10 (* (- 1) 1)))) (<= 0 (+ var11 (* (- 1) 1)))) (or (and (<= 0 var9) (<= 0 (+ (+ (* 1 var10) var9) (* (- 1) 1)))) (and (not (<= 0 var9)) (<= 0 (+ (+ (* 1 var10) (* (- 1) var9)) (* (- 1) 1)))))) (or (and (<= 0 var9) (<= 0 (+ (+ (* (- 1) var10) var9) (* (- 1) 1)))) (and (not (<= 0 var9)) (<= 0 (+ (+ (* (- 1) var10) (* (- 1) var9)) (* (- 1) 1)))))) (= var9 (* var0 var0))) (= var10 (+ var11 (* (* (- 1) var9) var8)))) (= var11 (* var6 (+ var0 (* (- 1) 1))))) (or (not (<= 0 (+ (* (- 1) var10) (* (- 1) 1)))) (<= 0 (+ (* (- 1) var11) (* (- 1) 1)))))) (<= 0 (+ var8 (* (- 1) var4)))))))))
(check-sat)
